25° run output:
{
    "Function": "kroA400.tsp",
    "Problem dimension": [
        78,
        239,
        198,
        215,
        86,
        95,
        221,
        19,
        321,
        97,
        27,
        244,
        285,
        141,
        337,
        178,
        144,
        359,
        65,
        242,
        175,
        89,
        181,
        299,
        45,
        216,
        108,
        182,
        371,
        54,
        356,
        213,
        4,
        40,
        173,
        312,
        327,
        387,
        226,
        366,
        73,
        164,
        83,
        209,
        53,
        395,
        126,
        122,
        204,
        205,
        18,
        84,
        317,
        121,
        90,
        219,
        326,
        128,
        383,
        250,
        357,
        106,
        157,
        256,
        14,
        286,
        320,
        278,
        304,
        233,
        168,
        308,
        68,
        137,
        333,
        101,
        156,
        302,
        240,
        272,
        247,
        394,
        197,
        241,
        130,
        72,
        25,
        93,
        174,
        323,
        301,
        315,
        47,
        342,
        343,
        42,
        281,
        200,
        273,
        255,
        336,
        293,
        170,
        64,
        63,
        35,
        245,
        314,
        104,
        284,
        282,
        367,
        88,
        20,
        288,
        127,
        263,
        56,
        300,
        268,
        349,
        1,
        111,
        34,
        283,
        48,
        345,
        31,
        390,
        297,
        155,
        388,
        339,
        62,
        50,
        294,
        231,
        397,
        372,
        153,
        166,
        252,
        107,
        277,
        399,
        243,
        91,
        186,
        147,
        319,
        163,
        348,
        254,
        318,
        296,
        280,
        60,
        120,
        259,
        384,
        298,
        159,
        274,
        3,
        382,
        398,
        179,
        85,
        257,
        49,
        5,
        217,
        238,
        57,
        133,
        132,
        151,
        385,
        81,
        23,
        43,
        28,
        340,
        51,
        196,
        279,
        211,
        41,
        362,
        369,
        0,
        187,
        99,
        185,
        227,
        142,
        33,
        378,
        67,
        146,
        331,
        391,
        249,
        322,
        98,
        335,
        140,
        201,
        184,
        228,
        203,
        110,
        370,
        377,
        292,
        15,
        361,
        355,
        289,
        148,
        188,
        379,
        125,
        2,
        59,
        30,
        270,
        225,
        171,
        12,
        353,
        46,
        160,
        70,
        224,
        114,
        305,
        311,
        236,
        330,
        208,
        389,
        223,
        307,
        267,
        222,
        260,
        251,
        350,
        109,
        230,
        135,
        328,
        154,
        313,
        358,
        199,
        39,
        306,
        275,
        8,
        152,
        373,
        368,
        262,
        261,
        149,
        58,
        393,
        11,
        291,
        309,
        214,
        212,
        167,
        374,
        191,
        381,
        117,
        234,
        380,
        162,
        332,
        94,
        276,
        232,
        290,
        341,
        165,
        136,
        218,
        338,
        79,
        258,
        52,
        145,
        351,
        269,
        13,
        295,
        6,
        169,
        202,
        66,
        266,
        352,
        194,
        386,
        347,
        229,
        363,
        376,
        310,
        303,
        115,
        77,
        103,
        55,
        207,
        139,
        392,
        158,
        17,
        36,
        123,
        119,
        16,
        112,
        143,
        210,
        172,
        180,
        69,
        271,
        74,
        360,
        76,
        324,
        287,
        237,
        150,
        21,
        61,
        92,
        354,
        344,
        44,
        80,
        248,
        131,
        176,
        105,
        396,
        124,
        253,
        129,
        177,
        7,
        206,
        192,
        325,
        346,
        32,
        96,
        29,
        134,
        118,
        246,
        265,
        195,
        102,
        24,
        113,
        235,
        71,
        82,
        87,
        138,
        329,
        375,
        26,
        10,
        364,
        189,
        183,
        220,
        75,
        193,
        334,
        22,
        365,
        161,
        37,
        38,
        316,
        116,
        190,
        100,
        9,
        264
    ],
    "Global Optimum": 0,
    "Algorithm": "Genetic algorithm",
    "Parameters": {
        "population": 30,
        "offspring": 30,
        "mutation probability": 0.0025,
        "crossover probability": 0.9
    },
    "Fitness": 522195,
    "Solution": [
        78,
        239,
        198,
        215,
        86,
        95,
        221,
        19,
        321,
        97,
        27,
        244,
        285,
        141,
        337,
        178,
        144,
        359,
        65,
        242,
        175,
        89,
        181,
        299,
        45,
        216,
        108,
        182,
        371,
        54,
        356,
        213,
        4,
        40,
        173,
        312,
        327,
        387,
        226,
        366,
        73,
        164,
        83,
        209,
        53,
        395,
        126,
        122,
        204,
        205,
        18,
        84,
        317,
        121,
        90,
        219,
        326,
        128,
        383,
        250,
        357,
        106,
        157,
        256,
        14,
        286,
        320,
        278,
        304,
        233,
        168,
        308,
        68,
        137,
        333,
        101,
        156,
        302,
        240,
        272,
        247,
        394,
        197,
        241,
        130,
        72,
        25,
        93,
        174,
        323,
        301,
        315,
        47,
        342,
        343,
        42,
        281,
        200,
        273,
        255,
        336,
        293,
        170,
        64,
        63,
        35,
        245,
        314,
        104,
        284,
        282,
        367,
        88,
        20,
        288,
        127,
        263,
        56,
        300,
        268,
        349,
        1,
        111,
        34,
        283,
        48,
        345,
        31,
        390,
        297,
        155,
        388,
        339,
        62,
        50,
        294,
        231,
        397,
        372,
        153,
        166,
        252,
        107,
        277,
        399,
        243,
        91,
        186,
        147,
        319,
        163,
        348,
        254,
        318,
        296,
        280,
        60,
        120,
        259,
        384,
        298,
        159,
        274,
        3,
        382,
        398,
        179,
        85,
        257,
        49,
        5,
        217,
        238,
        57,
        133,
        132,
        151,
        385,
        81,
        23,
        43,
        28,
        340,
        51,
        196,
        279,
        211,
        41,
        362,
        369,
        0,
        187,
        99,
        185,
        227,
        142,
        33,
        378,
        67,
        146,
        331,
        391,
        249,
        322,
        98,
        335,
        140,
        201,
        184,
        228,
        203,
        110,
        370,
        377,
        292,
        15,
        361,
        355,
        289,
        148,
        188,
        379,
        125,
        2,
        59,
        30,
        270,
        225,
        171,
        12,
        353,
        46,
        160,
        70,
        224,
        114,
        305,
        311,
        236,
        330,
        208,
        389,
        223,
        307,
        267,
        222,
        260,
        251,
        350,
        109,
        230,
        135,
        328,
        154,
        313,
        358,
        199,
        39,
        306,
        275,
        8,
        152,
        373,
        368,
        262,
        261,
        149,
        58,
        393,
        11,
        291,
        309,
        214,
        212,
        167,
        374,
        191,
        381,
        117,
        234,
        380,
        162,
        332,
        94,
        276,
        232,
        290,
        341,
        165,
        136,
        218,
        338,
        79,
        258,
        52,
        145,
        351,
        269,
        13,
        295,
        6,
        169,
        202,
        66,
        266,
        352,
        194,
        386,
        347,
        229,
        363,
        376,
        310,
        303,
        115,
        77,
        103,
        55,
        207,
        139,
        392,
        158,
        17,
        36,
        123,
        119,
        16,
        112,
        143,
        210,
        172,
        180,
        69,
        271,
        74,
        360,
        76,
        324,
        287,
        237,
        150,
        21,
        61,
        92,
        354,
        344,
        44,
        80,
        248,
        131,
        176,
        105,
        396,
        124,
        253,
        129,
        177,
        7,
        206,
        192,
        325,
        346,
        32,
        96,
        29,
        134,
        118,
        246,
        265,
        195,
        102,
        24,
        113,
        235,
        71,
        82,
        87,
        138,
        329,
        375,
        26,
        10,
        364,
        189,
        183,
        220,
        75,
        193,
        334,
        22,
        365,
        161,
        37,
        38,
        316,
        116,
        190,
        100,
        9,
        264
    ],
    "Nb of functions evaluations": 50010,
    "Computational time in seconds": 239.99462175369263,
    "Stopping criterion in evaluations": 50000
}